\ Model Passenger_Mix_Flow_RMP
\ LP format - for model browsing. Use MPS format to capture full model detail.
\ Signature: 0x703c6d539e65d2e9
Minimize
  41 t_0_259 + 49 t_1_259 + 65 t_2_259 + 60 t_3_259 + 51 t_4_259
   + 50 t_5_259 + 51 t_6_259 + 59 t_7_259 + 47 t_8_259 + 67 t_9_259
   + 65 t_10_259 + 54 t_11_259 + 48 t_12_259 + 67 t_13_259 + 68 t_14_259
   + 66 t_15_259 + 65 t_16_259 + 53 t_17_259 + 67 t_18_259 + 75 t_19_259
   + 51 t_20_259 + 59 t_21_259 + 64 t_22_259 + 52 t_23_259 + 41 t_24_259
   + 47 t_25_259 + 49 t_26_259 + 65 t_27_259 + 54 t_28_259 + 54 t_29_259
   + 68 t_30_259 + 64 t_31_259 + 68 t_32_259 + 67 t_33_259 + 41 t_34_259
   + 61 t_35_259 + 58 t_36_259 + 72 t_37_259 + 60 t_38_259 + 44 t_39_259
   + 65 t_40_259 + 44 t_41_259 + 69 t_42_259 + 56 t_43_259 + 41 t_44_259
   + 63 t_45_259 + 54 t_46_259 + 127 t_47_259 + 154 t_48_259 + 91 t_49_259
   + 98 t_50_259 + 133 t_51_259 + 88 t_52_259 + 73 t_53_259 + 131 t_54_259
   + 91 t_55_259 + 81 t_56_259 + 57 t_57_259 + 83 t_58_259 + 130 t_59_259
   + 64 t_60_259 + 59 t_61_259 + 69 t_62_259 + 60 t_63_259 + 66 t_64_259
   + 68 t_65_259 + 58 t_66_259 + 37 t_67_259 + 50 t_68_259 + 49 t_69_259
   + 52 t_70_259 + 53 t_71_259 + 60 t_72_259 + 120 t_73_259 + 94 t_74_259
   + 76 t_75_259 + 99 t_76_259 + 59 t_77_259 + 58 t_78_259 + 64 t_79_259
   + 51 t_80_259 + 53 t_81_259 + 49 t_82_259 + 58 t_83_259 + 111 t_84_259
   + 84 t_85_259 + 83 t_86_259 + 110 t_87_259 + 59 t_88_259 + 83 t_89_259
   + 54 t_90_259 + 62 t_91_259 + 104 t_92_259 + 76 t_93_259 + 99 t_94_259
   + 113 t_95_259 + 101 t_96_259 + 106 t_97_259 + 82 t_98_259 + 95 t_99_259
   + 168 t_100_259 + 132 t_101_259 + 124 t_102_259 + 118 t_103_259
   + 112 t_104_259 + 130 t_105_259 + 134 t_106_259 + 128 t_107_259
   + 219 t_108_259 + 214 t_109_259 + 95 t_110_259 + 149 t_111_259
   + 139 t_112_259 + 182 t_113_259 + 132 t_114_259 + 181 t_115_259
   + 94 t_116_259 + 141 t_117_259 + 148 t_118_259 + 123 t_119_259
   + 181 t_120_259 + 114 t_121_259 + 205 t_122_259 + 213 t_123_259
   + 123 t_124_259 + 91 t_125_259 + 145 t_126_259 + 135 t_127_259
   + 178 t_128_259 + 128 t_129_259 + 177 t_130_259 + 124 t_131_259
   + 131 t_132_259 + 219 t_133_259 + 117 t_134_259 + 208 t_135_259
   + 117 t_136_259 + 111 t_137_259 + 202 t_138_259 + 139 t_139_259
   + 127 t_140_259 + 108 t_141_259 + 121 t_142_259 + 194 t_143_259
   + 158 t_144_259 + 137 t_145_259 + 131 t_146_259 + 149 t_147_259
   + 125 t_148_259 + 120 t_149_259 + 134 t_150_259 + 134 t_151_259
   + 157 t_152_259 + 164 t_153_259 + 139 t_154_259 + 197 t_155_259
   + 196 t_156_259 + 112 t_157_259 + 126 t_158_259 + 134 t_159_259
   + 128 t_160_259 + 146 t_161_259 + 105 t_162_259 + 94 t_163_259
   + 107 t_164_259 + 110 t_165_259 + 117 t_166_259 + 134 t_167_259
   + 143 t_168_259 + 173 t_169_259 + 163 t_170_259 + 206 t_171_259
   + 156 t_172_259 + 205 t_173_259 + 103 t_174_259 + 92 t_175_259
   + 105 t_176_259 + 108 t_177_259 + 115 t_178_259 + 124 t_179_259
   + 123 t_180_259 + 126 t_181_259 + 100 t_182_259 + 131 t_183_259
   + 119 t_184_259 + 124 t_185_259 + 186 t_186_259 + 150 t_187_259
   + 142 t_188_259 + 128 t_189_259 + 137 t_190_259 + 113 t_191_259
   + 157 t_192_259 + 200 t_193_259 + 150 t_194_259 + 199 t_195_259
   + 125 t_196_259 + 120 t_197_259 + 134 t_198_259 + 157 t_199_259
   + 164 t_200_259 + 139 t_201_259 + 197 t_202_259 + 136 t_203_259
   + 159 t_204_259 + 141 t_205_259 + 148 t_206_259 + 162 t_207_259
   + 185 t_208_259 + 167 t_209_259 + 158 t_210_259 + 153 t_211_259
   + 167 t_212_259 + 143 t_213_259 + 187 t_214_259 + 230 t_215_259
   + 229 t_216_259 + 172 t_217_259 + 180 t_218_259 + 174 t_219_259
   + 192 t_220_259 + 152 t_221_259 + 124 t_222_259 + 148 t_223_259
   + 127 t_224_259 + 210 t_225_259 + 140 t_226_259 + 147 t_227_259
   + 142 t_228_259 + 137 t_229_259 + 151 t_230_259 + 127 t_231_259
   + 181 t_232_259 + 171 t_233_259 + 214 t_234_259 + 213 t_235_259
   + 113 t_236_259 + 122 t_237_259 + 98 t_238_259 + 152 t_239_259
   + 142 t_240_259 + 185 t_241_259 + 184 t_242_259 + 116 t_243_259
   + 130 t_244_259 + 153 t_245_259 + 135 t_246_259 + 163 t_247_259
   + 158 t_248_259 + 172 t_249_259 + 172 t_250_259 + 195 t_251_259
   + 202 t_252_259 + 177 t_253_259 + 235 t_254_259 + 137 t_255_259
   + 145 t_256_259 + 139 t_257_259 + 157 t_258_259
Subject To
 cap_0: t_0_259 + t_94_259 + t_95_259 + t_96_259 + t_97_259 + t_98_259
   + t_99_259 + t_100_259 + t_101_259 + t_102_259 >= 608
 cap_1: t_1_259 + t_103_259 + t_104_259 + t_105_259 >= 19
 cap_2: t_2_259 + t_106_259 + t_107_259 + t_108_259 >= 61
 cap_3: t_3_259 + t_109_259 >= 38
 cap_4: t_4_259 + t_110_259 + t_111_259 + t_112_259 + t_113_259 + t_114_259
   + t_115_259 >= 407
 cap_5: t_5_259 + t_116_259 + t_117_259 + t_118_259 + t_119_259 + t_120_259
   >= 729
 cap_6: t_6_259 + t_121_259 + t_122_259 >= 30
 cap_7: t_7_259 + t_123_259 + t_124_259 >= 135
 cap_8: t_8_259 + t_125_259 + t_126_259 + t_127_259 + t_128_259 + t_129_259
   + t_130_259 >= 498
 cap_9: t_9_259 + t_131_259 + t_132_259 >= 118
 cap_10: t_10_259 + t_133_259 >= 32
 cap_11: t_11_259 + t_134_259 + t_135_259 >= 48
 cap_12: t_12_259 + t_136_259 + t_137_259 + t_138_259 >= 0
 cap_13: t_13_259 + t_139_259 + t_140_259 + t_141_259 + t_142_259
   + t_143_259 + t_144_259 >= 389
 cap_14: t_14_259 + t_145_259 + t_146_259 + t_147_259 >= 88
 cap_15: t_15_259 + t_148_259 + t_149_259 + t_150_259 + t_151_259
   + t_152_259 + t_153_259 + t_154_259 + t_155_259 + t_156_259 >= 677
 cap_16: t_16_259 + t_157_259 + t_158_259 + t_159_259 + t_160_259
   + t_161_259 >= 542
 cap_17: t_17_259 + t_162_259 + t_163_259 + t_164_259 + t_165_259
   + t_166_259 >= 42
 cap_18: t_18_259 >= -13
 cap_19: t_19_259 + t_167_259 + t_168_259 + t_169_259 + t_170_259
   + t_171_259 + t_172_259 + t_173_259 >= 463
 cap_20: t_20_259 + t_174_259 + t_175_259 + t_176_259 + t_177_259
   + t_178_259 >= 253
 cap_21: t_21_259 + t_148_259 + t_167_259 + t_189_259 + t_196_259
   + t_210_259 + t_228_259 + t_236_259 + t_247_259 >= 327
 cap_22: t_22_259 >= 21
 cap_23: t_23_259 + t_162_259 + t_174_259 >= 91
 cap_24: t_24_259 + t_163_259 + t_175_259 + t_222_259 >= 298
 cap_25: t_25_259 + t_157_259 >= 120
 cap_26: t_26_259 >= 0
 cap_27: t_27_259 + t_179_259 + t_223_259 >= 150
 cap_28: t_28_259 + t_149_259 + t_197_259 + t_206_259 + t_211_259
   + t_229_259 + t_243_259 + t_248_259 >= 514
 cap_29: t_29_259 + t_164_259 + t_176_259 >= 58
 cap_30: t_30_259 + t_150_259 + t_168_259 + t_190_259 + t_212_259
   + t_230_259 + t_237_259 + t_249_259 >= 488
 cap_31: t_31_259 + t_180_259 >= -35
 cap_32: t_32_259 + t_151_259 + t_198_259 + t_203_259 + t_207_259
   + t_221_259 + t_244_259 + t_250_259 >= 547
 cap_33: t_33_259 + t_181_259 >= -27
 cap_34: t_34_259 + t_182_259 >= -11
 cap_35: t_35_259 + t_158_259 + t_217_259 + t_255_259 >= 488
 cap_36: t_36_259 + t_94_259 >= 171
 cap_37: t_37_259 + t_95_259 + t_139_259 + t_183_259 >= 282
 cap_38: t_38_259 + t_96_259 + t_140_259 + t_184_259 >= 140
 cap_39: t_39_259 + t_224_259 >= 133
 cap_40: t_40_259 + t_97_259 + t_185_259 >= 99
 cap_41: t_41_259 + t_110_259 + t_116_259 + t_125_259 + t_191_259
   + t_213_259 + t_231_259 + t_238_259 >= 950
 cap_42: t_42_259 + t_103_259 + t_106_259 + t_136_259 + t_145_259
   + t_159_259 + t_218_259 + t_256_259 >= 188
 cap_43: t_43_259 >= -43
 cap_44: t_44_259 + t_98_259 + t_141_259 >= 29
 cap_45: t_45_259 + t_104_259 + t_107_259 + t_121_259 + t_134_259
   + t_137_259 + t_146_259 + t_160_259 + t_219_259 + t_257_259 >= 385
 cap_46: t_46_259 + t_99_259 + t_142_259 >= 43
 cap_47: t_47_259 + t_100_259 + t_143_259 + t_186_259 + t_225_259 >= 328
 cap_48: t_48_259 + t_108_259 + t_109_259 + t_122_259 + t_123_259
   + t_133_259 + t_135_259 + t_138_259 >= 173
 cap_49: t_49_259 + t_117_259 + t_152_259 + t_199_259 + t_204_259
   + t_208_259 + t_245_259 + t_251_259 >= 484
 cap_50: t_50_259 + t_111_259 + t_118_259 + t_126_259 + t_153_259
   + t_169_259 + t_200_259 + t_232_259 + t_239_259 + t_252_259 >= 645
 cap_51: t_51_259 >= -2
 cap_52: t_52_259 + t_112_259 + t_127_259 + t_170_259 + t_192_259
   + t_214_259 + t_233_259 + t_240_259 >= 299
 cap_53: t_53_259 + t_119_259 + t_154_259 + t_201_259 + t_205_259
   + t_209_259 + t_246_259 + t_253_259 >= 603
 cap_54: t_54_259 + t_113_259 + t_120_259 + t_128_259 + t_155_259
   + t_171_259 + t_193_259 + t_202_259 + t_215_259 + t_234_259 + t_241_259
   + t_254_259 >= 574
 cap_55: t_55_259 + t_101_259 + t_144_259 + t_187_259 >= 122
 cap_56: t_56_259 + t_105_259 + t_114_259 + t_129_259 + t_147_259
   + t_161_259 + t_172_259 + t_194_259 + t_220_259 + t_258_259 >= 884
 cap_57: t_57_259 + t_131_259 + t_165_259 + t_177_259 + t_226_259 >= 168
 cap_58: t_58_259 + t_102_259 + t_188_259 >= 142
 cap_59: t_59_259 + t_115_259 + t_130_259 + t_156_259 + t_173_259
   + t_195_259 + t_216_259 + t_235_259 + t_242_259 >= 459
 cap_60: t_60_259 + t_124_259 + t_132_259 + t_166_259 + t_178_259
   + t_227_259 >= 512
 cap_61: t_61_259 + t_179_259 + t_180_259 + t_181_259 + t_182_259
   + t_183_259 + t_184_259 + t_185_259 + t_186_259 + t_187_259 + t_188_259
   >= 414
 cap_62: t_62_259 + t_189_259 + t_190_259 + t_191_259 + t_192_259
   + t_193_259 + t_194_259 + t_195_259 >= 471
 cap_63: t_63_259 >= -40
 cap_64: t_64_259 + t_196_259 + t_197_259 + t_198_259 + t_199_259
   + t_200_259 + t_201_259 + t_202_259 >= 215
 cap_65: t_65_259 + t_203_259 + t_204_259 + t_205_259 >= 62
 cap_66: t_66_259 >= 0
 cap_67: t_67_259 >= -12
 cap_68: t_68_259 >= -23
 cap_69: t_69_259 >= -8
 cap_70: t_70_259 >= -21
 cap_71: t_71_259 >= -20
 cap_72: t_72_259 >= -36
 cap_73: t_73_259 >= -14
 cap_74: t_74_259 + t_206_259 + t_207_259 + t_208_259 + t_209_259 >= 295
 cap_75: t_75_259 >= -46
 cap_76: t_76_259 + t_210_259 + t_211_259 + t_212_259 + t_213_259
   + t_214_259 + t_215_259 + t_216_259 >= 736
 cap_77: t_77_259 >= -44
 cap_78: t_78_259 >= 44
 cap_79: t_79_259 >= 43
 cap_80: t_80_259 >= -30
 cap_81: t_81_259 >= -11
 cap_82: t_82_259 >= 27
 cap_83: t_83_259 >= -43
 cap_84: t_84_259 + t_217_259 + t_218_259 + t_219_259 + t_220_259 >= 458
 cap_85: t_85_259 + t_221_259 >= 183
 cap_86: t_86_259 + t_222_259 + t_223_259 + t_224_259 + t_225_259
   + t_226_259 + t_227_259 >= 711
 cap_87: t_87_259 >= -2
 cap_88: t_88_259 >= -32
 cap_89: t_89_259 + t_228_259 + t_229_259 + t_230_259 + t_231_259
   + t_232_259 + t_233_259 + t_234_259 + t_235_259 >= 474
 cap_90: t_90_259 + t_236_259 + t_237_259 + t_238_259 + t_239_259
   + t_240_259 + t_241_259 + t_242_259 >= 753
 cap_91: t_91_259 + t_243_259 + t_244_259 + t_245_259 + t_246_259 >= 338
 cap_92: t_92_259 + t_247_259 + t_248_259 + t_249_259 + t_250_259
   + t_251_259 + t_252_259 + t_253_259 + t_254_259 >= 255
 cap_93: t_93_259 + t_255_259 + t_256_259 + t_257_259 + t_258_259 >= 398
 demand_0: t_0_259 <= 44
 demand_1: t_1_259 <= 38
 demand_2: t_2_259 <= 57
 demand_3: t_3_259 <= 52
 demand_4: t_4_259 <= 23
 demand_5: t_5_259 <= 48
 demand_6: t_6_259 <= 48
 demand_7: t_7_259 <= 29
 demand_8: t_8_259 <= 80
 demand_9: t_9_259 <= 11
 demand_10: t_10_259 <= 76
 demand_11: t_11_259 <= 36
 demand_12: t_12_259 <= 30
 demand_13: t_13_259 <= 24
 demand_14: t_14_259 <= 32
 demand_15: t_15_259 <= 33
 demand_16: t_16_259 <= 29
 demand_17: t_17_259 <= 7
 demand_18: t_18_259 <= 32
 demand_19: t_19_259 <= 197
 demand_20: t_20_259 <= 2
 demand_21: t_21_259 <= 57
 demand_22: t_22_259 <= 66
 demand_23: t_23_259 <= 10
 demand_24: t_24_259 <= 28
 demand_25: t_25_259 <= 57
 demand_26: t_26_259 <= 45
 demand_27: t_27_259 <= 59
 demand_28: t_28_259 <= 41
 demand_29: t_29_259 <= 68
 demand_30: t_30_259 <= 68
 demand_31: t_31_259 <= 8
 demand_32: t_32_259 <= 71
 demand_33: t_33_259 <= 31
 demand_34: t_34_259 <= 15
 demand_35: t_35_259 <= 5
 demand_36: t_36_259 <= 17
 demand_37: t_37_259 <= 67
 demand_38: t_38_259 <= 63
 demand_39: t_39_259 <= 54
 demand_40: t_40_259 <= 60
 demand_41: t_41_259 <= 40
 demand_42: t_42_259 <= 58
 demand_43: t_43_259 <= 2
 demand_44: t_44_259 <= 22
 demand_45: t_45_259 <= 57
 demand_46: t_46_259 <= 53
 demand_47: t_47_259 <= 56
 demand_48: t_48_259 <= 69
 demand_49: t_49_259 <= 145
 demand_50: t_50_259 <= 2
 demand_51: t_51_259 <= 68
 demand_52: t_52_259 <= 27
 demand_53: t_53_259 <= 68
 demand_54: t_54_259 <= 68
 demand_55: t_55_259 <= 36
 demand_56: t_56_259 <= 43
 demand_57: t_57_259 <= 117
 demand_58: t_58_259 <= 68
 demand_59: t_59_259 <= 52
 demand_60: t_60_259 <= 67
 demand_61: t_61_259 <= 61
 demand_62: t_62_259 <= 25
 demand_63: t_63_259 <= 5
 demand_64: t_64_259 <= 83
 demand_65: t_65_259 <= 17
 demand_66: t_66_259 <= 45
 demand_67: t_67_259 <= 33
 demand_68: t_68_259 <= 22
 demand_69: t_69_259 <= 37
 demand_70: t_70_259 <= 24
 demand_71: t_71_259 <= 25
 demand_72: t_72_259 <= 9
 demand_73: t_73_259 <= 56
 demand_74: t_74_259 <= 69
 demand_75: t_75_259 <= 24
 demand_76: t_76_259 <= 123
 demand_77: t_77_259 <= 1
 demand_78: t_78_259 <= 89
 demand_79: t_79_259 <= 88
 demand_80: t_80_259 <= 15
 demand_81: t_81_259 <= 34
 demand_82: t_82_259 <= 72
 demand_83: t_83_259 <= 2
 demand_84: t_84_259 <= 68
 demand_85: t_85_259 <= 28
 demand_86: t_86_259 <= 67
 demand_87: t_87_259 <= 68
 demand_88: t_88_259 <= 38
 demand_89: t_89_259 <= 25
 demand_90: t_90_259 <= 71
 demand_91: t_91_259 <= 129
 demand_92: t_92_259 <= 52
 demand_93: t_93_259 <= 67
 demand_94: t_94_259 <= 199
 demand_95: t_95_259 <= 31
 demand_96: t_96_259 <= 26
 demand_97: t_97_259 <= 31
 demand_98: t_98_259 <= 18
 demand_99: t_99_259 <= 24
 demand_100: t_100_259 <= 124
 demand_101: t_101_259 <= 65
 demand_102: t_102_259 <= 91
 demand_103: t_103_259 <= 15
 demand_104: t_104_259 <= 10
 demand_105: t_105_259 <= 1
 demand_106: t_106_259 <= 13
 demand_107: t_107_259 <= 3
 demand_108: t_108_259 <= 33
 demand_109: t_109_259 <= 31
 demand_110: t_110_259 <= 62
 demand_111: t_111_259 <= 108
 demand_112: t_112_259 <= 63
 demand_113: t_113_259 <= 64
 demand_114: t_114_259 <= 115
 demand_115: t_115_259 <= 17
 demand_116: t_116_259 <= 260
 demand_117: t_117_259 <= 70
 demand_118: t_118_259 <= 55
 demand_119: t_119_259 <= 323
 demand_120: t_120_259 <= 18
 demand_121: t_121_259 <= 16
 demand_122: t_122_259 <= 11
 demand_123: t_123_259 <= 11
 demand_124: t_124_259 <= 140
 demand_125: t_125_259 <= 125
 demand_126: t_126_259 <= 32
 demand_127: t_127_259 <= 121
 demand_128: t_128_259 <= 67
 demand_129: t_129_259 <= 43
 demand_130: t_130_259 <= 75
 demand_131: t_131_259 <= 10
 demand_132: t_132_259 <= 142
 demand_133: t_133_259 <= 26
 demand_134: t_134_259 <= 29
 demand_135: t_135_259 <= 53
 demand_136: t_136_259 <= 15
 demand_137: t_137_259 <= 16
 demand_138: t_138_259 <= 9
 demand_139: t_139_259 <= 154
 demand_140: t_140_259 <= 92
 demand_141: t_141_259 <= 34
 demand_142: t_142_259 <= 11
 demand_143: t_143_259 <= 103
 demand_144: t_144_259 <= 41
 demand_145: t_145_259 <= 36
 demand_146: t_146_259 <= 36
 demand_147: t_147_259 <= 54
 demand_148: t_148_259 <= 5
 demand_149: t_149_259 <= 129
 demand_150: t_150_259 <= 121
 demand_151: t_151_259 <= 116
 demand_152: t_152_259 <= 82
 demand_153: t_153_259 <= 22
 demand_154: t_154_259 <= 98
 demand_155: t_155_259 <= 77
 demand_156: t_156_259 <= 39
 demand_157: t_157_259 <= 108
 demand_158: t_158_259 <= 70
 demand_159: t_159_259 <= 10
 demand_160: t_160_259 <= 217
 demand_161: t_161_259 <= 153
 demand_162: t_162_259 <= 3
 demand_163: t_163_259 <= 21
 demand_164: t_164_259 <= 32
 demand_165: t_165_259 <= 1
 demand_166: t_166_259 <= 23
 demand_167: t_167_259 <= 43
 demand_168: t_168_259 <= 73
 demand_169: t_169_259 <= 88
 demand_170: t_170_259 <= 25
 demand_171: t_171_259 <= 0
 demand_172: t_172_259 <= 78
 demand_173: t_173_259 <= 4
 demand_174: t_174_259 <= 123
 demand_175: t_175_259 <= 128
 demand_176: t_176_259 <= 3
 demand_177: t_177_259 <= 14
 demand_178: t_178_259 <= 53
 demand_179: t_179_259 <= 20
 demand_180: t_180_259 <= 27
 demand_181: t_181_259 <= 12
 demand_182: t_182_259 <= 44
 demand_183: t_183_259 <= 75
 demand_184: t_184_259 <= 4
 demand_185: t_185_259 <= 53
 demand_186: t_186_259 <= 60
 demand_187: t_187_259 <= 50
 demand_188: t_188_259 <= 53
 demand_189: t_189_259 <= 23
 demand_190: t_190_259 <= 50
 demand_191: t_191_259 <= 94
 demand_192: t_192_259 <= 26
 demand_193: t_193_259 <= 27
 demand_194: t_194_259 <= 221
 demand_195: t_195_259 <= 50
 demand_196: t_196_259 <= 4
 demand_197: t_197_259 <= 44
 demand_198: t_198_259 <= 14
 demand_199: t_199_259 <= 13
 demand_200: t_200_259 <= 49
 demand_201: t_201_259 <= 37
 demand_202: t_202_259 <= 16
 demand_203: t_203_259 <= 42
 demand_204: t_204_259 <= 43
 demand_205: t_205_259 <= 5
 demand_206: t_206_259 <= 94
 demand_207: t_207_259 <= 83
 demand_208: t_208_259 <= 75
 demand_209: t_209_259 <= 44
 demand_210: t_210_259 <= 82
 demand_211: t_211_259 <= 99
 demand_212: t_212_259 <= 84
 demand_213: t_213_259 <= 193
 demand_214: t_214_259 <= 77
 demand_215: t_215_259 <= 58
 demand_216: t_216_259 <= 90
 demand_217: t_217_259 <= 200
 demand_218: t_218_259 <= 73
 demand_219: t_219_259 <= 27
 demand_220: t_220_259 <= 160
 demand_221: t_221_259 <= 225
 demand_222: t_222_259 <= 166
 demand_223: t_223_259 <= 116
 demand_224: t_224_259 <= 124
 demand_225: t_225_259 <= 55
 demand_226: t_226_259 <= 96
 demand_227: t_227_259 <= 157
 demand_228: t_228_259 <= 65
 demand_229: t_229_259 <= 56
 demand_230: t_230_259 <= 91
 demand_231: t_231_259 <= 52
 demand_232: t_232_259 <= 189
 demand_233: t_233_259 <= 17
 demand_234: t_234_259 <= 3
 demand_235: t_235_259 <= 46
 demand_236: t_236_259 <= 64
 demand_237: t_237_259 <= 21
 demand_238: t_238_259 <= 194
 demand_239: t_239_259 <= 118
 demand_240: t_240_259 <= 13
 demand_241: t_241_259 <= 186
 demand_242: t_242_259 <= 156
 demand_243: t_243_259 <= 85
 demand_244: t_244_259 <= 40
 demand_245: t_245_259 <= 89
 demand_246: t_246_259 <= 65
 demand_247: t_247_259 <= 29
 demand_248: t_248_259 <= 11
 demand_249: t_249_259 <= 25
 demand_250: t_250_259 <= 26
 demand_251: t_251_259 <= 37
 demand_252: t_252_259 <= 52
 demand_253: t_253_259 <= 33
 demand_254: t_254_259 <= 60
 demand_255: t_255_259 <= 283
 demand_256: t_256_259 <= 13
 demand_257: t_257_259 <= 19
 demand_258: t_258_259 <= 86
Bounds
End
